=1
=2
=0IBM ILOG CPLEX   42.1.0 cb854401 Feb 1, 2023           LEG x86 64bit/Linux    
=1
--- GAMS/Cplex licensed for continuous and discrete problems.
=2
=C
=1
=CReading parameter(s) from "/storage/home/ejm6426/scratch/scRBA/parameterization/kapp/datasets/Yu2021_chemoClimNH4_010_using_rtRBA_methods/min_flux_violation/cplex.opt"
=C>>  optcr = 1E-12
=C>>  optca = 1E-12
=C>>  eprhs = 1E-9
=C>> 
=CFinished reading from "/storage/home/ejm6426/scratch/scRBA/parameterization/kapp/datasets/Yu2021_chemoClimNH4_010_using_rtRBA_methods/min_flux_violation/cplex.opt"
=2
=C
=1
--- GMO setup time: 0.00s
=2
=1
--- Space for names approximately 0.48 Mb
=2
=1
--- Use option 'names no' to turn use of names off
=2
=1
--- GMO memory 5.76 Mb (peak 5.85 Mb)
=2
=1
--- Dictionary memory 0.00 Mb
=2
=1
--- Cplex 22.1.1.0 link memory 0.26 Mb (peak 1.91 Mb)
=2
=1
--- Starting Cplex
=2
=C
Version identifier: 22.1.1.0 | 2022-11-28 | 9160aff4d
CPXPARAM_Advance                                 0
CPXPARAM_Threads                                 1
CPXPARAM_MIP_Display                             4
CPXPARAM_MIP_Pool_Capacity                       0
CPXPARAM_Simplex_Limits_Iterations               1000000
CPXPARAM_Simplex_Tolerances_Feasibility          1.0000000000000001e-09
CPXPARAM_TimeLimit                               1000
CPXPARAM_MIP_Tolerances_AbsMIPGap                9.9999999999999998e-13
CPXPARAM_MIP_Tolerances_MIPGap                   9.9999999999999998e-13
Tried aggregator 1 time.
LP Presolve eliminated 2367 rows and 6218 columns.
Aggregator did 617 substitutions.
Reduced LP has 1544 rows, 3847 columns, and 40968 nonzeros.
Presolve time = 0.08 sec. (22.83 ticks)

Iteration log . . .
Iteration:     1   Dual objective     =             0.000000
Perturbation started.
Iteration:   101   Dual objective     =             0.000000
Iteration:   215   Dual objective     =            11.653480
Iteration:   296   Dual objective     =            13.182545
Iteration:   399   Dual objective     =            13.224268
Iteration:   489   Dual objective     =            13.224669
Iteration:   600   Dual objective     =            13.224773
Iteration:   693   Dual objective     =            13.224976
Iteration:   755   Dual objective     =            13.225027
Iteration:   817   Dual objective     =            13.225587
Removing perturbation.
Iteration:   869   Scaled dual infeas =        420333.725949
Iteration:   946   Dual objective     =  -61734713385.743538
Iteration:  1115   Dual objective     =          1302.293850
Iteration:  1249   Dual objective     =          1477.470105
Iteration:  1393   Dual objective     =          1676.347830
Iteration:  1532   Dual objective     =          1869.086240
Iteration:  1664   Dual objective     =          2079.565379
Iteration:  1831   Dual objective     =         21291.379296
Removing shift (759).
=C
=1
--- LP status (3): infeasible.
=2
=1
--- Cplex Time: 0.48sec (det. 207.81 ticks)

=2
=C
=CModel has been proven infeasible
=C
